(set-logic QF_LIA)
(declare-fun x0 () Int)
(declare-fun x1 () Int)
(declare-fun x2 () Int)
(declare-fun x3 () Int)
(declare-fun x4 () Int)
(declare-fun x5 () Int)
(declare-fun x6 () Int)
(declare-fun x7 () Int)
(declare-fun x8 () Int)
(declare-fun x9 () Int)
(declare-fun A0 () Bool)
(declare-fun A1 () Bool)
(declare-fun A2 () Bool)
(declare-fun A3 () Bool)
(declare-fun A4 () Bool)
(declare-fun A5 () Bool)
(declare-fun A6 () Bool)
(declare-fun A7 () Bool)
(declare-fun A8 () Bool)
(declare-fun A9 () Bool)
(assert (let ((.def_0 (not A6))) (let ((.def_1 (or .def_0 A8))) (let ((.def_2 (* 1 x3))) (let ((.def_3 (< .def_2 1))) (let ((.def_4 (not .def_3))) (let ((.def_5 (or .def_4 A4))) (let ((.def_6 (not .def_5))) (let ((.def_7 (or .def_6 .def_1))) (let ((.def_8 (* 1 x8))) (let ((.def_9 (< .def_8 1))) (let ((.def_10 (not .def_9))) (let ((.def_11 (or A1 .def_10))) (let ((.def_12 (not .def_11))) (let ((.def_13 (* 1 x4))) (let ((.def_14 (< .def_13 (- 1)))) (let ((.def_15 (not .def_14))) (let ((.def_16 (* (- 1) x3))) (let ((.def_17 (* 1 x7))) (let ((.def_18 (+ .def_17 .def_16))) (let ((.def_19 (< .def_18 1))) (let ((.def_20 (and .def_19 .def_15))) (let ((.def_21 (not .def_20))) (let ((.def_22 (and .def_21 .def_12))) (let ((.def_23 (or .def_22 .def_7))) (let ((.def_24 (not .def_23))) (let ((.def_25 (* (- 1) x0))) (let ((.def_26 (* (- 1) x9))) (let ((.def_27 (+ .def_26 .def_25))) (let ((.def_28 (< .def_27 1))) (let ((.def_29 (not .def_28))) (let ((.def_30 (and .def_29 A1))) (let ((.def_31 (not .def_30))) (let ((.def_32 (* 1 x0))) (let ((.def_33 (+ .def_13 .def_32))) (let ((.def_34 (< .def_33 1))) (let ((.def_35 (< .def_26 (- 1)))) (let ((.def_36 (and .def_35 .def_34))) (let ((.def_37 (and .def_36 .def_31))) (let ((.def_38 (not A9))) (let ((.def_39 (not A1))) (let ((.def_40 (or .def_39 .def_38))) (let ((.def_41 (not .def_40))) (let ((.def_42 (* (- 1) x6))) (let ((.def_43 (* (- 1) x7))) (let ((.def_44 (+ .def_43 .def_42))) (let ((.def_45 (< .def_44 (- 1)))) (let ((.def_46 (or A7 .def_45))) (let ((.def_47 (not .def_46))) (let ((.def_48 (and .def_47 .def_41))) (let ((.def_49 (not .def_48))) (let ((.def_50 (and .def_49 .def_37))) (let ((.def_51 (or .def_50 .def_24))) (let ((.def_52 (< .def_17 1))) (let ((.def_53 (not .def_52))) (let ((.def_54 (* (- 1) x5))) (let ((.def_55 (+ .def_54 .def_8))) (let ((.def_56 (< .def_55 (- 1)))) (let ((.def_57 (not .def_56))) (let ((.def_58 (= .def_57 .def_53))) (let ((.def_59 (not .def_58))) (let ((.def_60 (* 1 x5))) (let ((.def_61 (< .def_60 1))) (let ((.def_62 (< .def_43 1))) (let ((.def_63 (not .def_62))) (let ((.def_64 (or .def_63 .def_61))) (let ((.def_65 (and .def_64 .def_59))) (let ((.def_66 (not .def_65))) (let ((.def_67 (* 1 x6))) (let ((.def_68 (< .def_67 (- 1)))) (let ((.def_69 (and A7 .def_68))) (let ((.def_70 (and A6 A7))) (let ((.def_71 (or .def_70 .def_69))) (let ((.def_72 (not .def_71))) (let ((.def_73 (and .def_72 .def_66))) (let ((.def_74 (not .def_73))) (let ((.def_75 (+ .def_16 .def_32))) (let ((.def_76 (< .def_75 1))) (let ((.def_77 (not .def_76))) (let ((.def_78 (< .def_54 (- 1)))) (let ((.def_79 (or .def_78 .def_77))) (let ((.def_80 (not .def_79))) (let ((.def_81 (not A0))) (let ((.def_82 (< .def_60 (- 1)))) (let ((.def_83 (or .def_82 .def_81))) (let ((.def_84 (or .def_83 .def_80))) (let ((.def_85 (not .def_84))) (let ((.def_86 (< .def_2 (- 1)))) (let ((.def_87 (not .def_86))) (let ((.def_88 (and .def_4 .def_87))) (let ((.def_89 (not .def_88))) (let ((.def_90 (< .def_13 1))) (let ((.def_91 (not .def_90))) (let ((.def_92 (+ .def_54 .def_13))) (let ((.def_93 (< .def_92 (- 1)))) (let ((.def_94 (= .def_93 .def_91))) (let ((.def_95 (= .def_94 .def_89))) (let ((.def_96 (or .def_95 .def_85))) (let ((.def_97 (or .def_96 .def_74))) (let ((.def_98 (not .def_97))) (let ((.def_99 (= .def_98 .def_51))) (let ((.def_100 (* 1 x2))) (let ((.def_101 (+ .def_26 .def_100))) (let ((.def_102 (< .def_101 (- 1)))) (let ((.def_103 (* (- 1) x1))) (let ((.def_104 (< .def_103 1))) (let ((.def_105 (not .def_104))) (let ((.def_106 (and .def_105 .def_102))) (let ((.def_107 (* (- 1) x4))) (let ((.def_108 (< .def_107 (- 1)))) (let ((.def_109 (not .def_108))) (let ((.def_110 (+ .def_107 .def_17))) (let ((.def_111 (< .def_110 (- 1)))) (let ((.def_112 (or .def_111 .def_109))) (let ((.def_113 (and .def_112 .def_106))) (let ((.def_114 (not .def_113))) (let ((.def_115 (* 1 x9))) (let ((.def_116 (+ .def_115 .def_8))) (let ((.def_117 (< .def_116 (- 1)))) (let ((.def_118 (not .def_117))) (let ((.def_119 (and .def_38 .def_118))) (let ((.def_120 (not .def_119))) (let ((.def_121 (and .def_0 .def_39))) (let ((.def_122 (or .def_121 .def_120))) (let ((.def_123 (= .def_122 .def_114))) (let ((.def_124 (+ .def_17 .def_100))) (let ((.def_125 (< .def_124 1))) (let ((.def_126 (not .def_125))) (let ((.def_127 (< .def_44 1))) (let ((.def_128 (and .def_127 .def_126))) (let ((.def_129 (not .def_128))) (let ((.def_130 (and .def_62 A1))) (let ((.def_131 (and .def_130 .def_129))) (let ((.def_132 (not .def_131))) (let ((.def_133 (< .def_32 (- 1)))) (let ((.def_134 (and A0 .def_133))) (let ((.def_135 (not A3))) (let ((.def_136 (or A5 .def_135))) (let ((.def_137 (and .def_136 .def_134))) (let ((.def_138 (not .def_137))) (let ((.def_139 (and .def_138 .def_132))) (let ((.def_140 (or .def_139 .def_123))) (let ((.def_141 (* (- 1) x8))) (let ((.def_142 (+ .def_16 .def_141))) (let ((.def_143 (< .def_142 (- 1)))) (let ((.def_144 (or A3 .def_143))) (let ((.def_145 (not .def_144))) (let ((.def_146 (< .def_42 (- 1)))) (let ((.def_147 (not .def_146))) (let ((.def_148 (+ .def_107 .def_26))) (let ((.def_149 (< .def_148 1))) (let ((.def_150 (not .def_149))) (let ((.def_151 (and .def_150 .def_147))) (let ((.def_152 (and .def_151 .def_145))) (let ((.def_153 (+ .def_2 .def_8))) (let ((.def_154 (< .def_153 (- 1)))) (let ((.def_155 (or .def_154 .def_61))) (let ((.def_156 (not .def_155))) (let ((.def_157 (not A7))) (let ((.def_158 (and A8 .def_157))) (let ((.def_159 (or .def_158 .def_156))) (let ((.def_160 (not .def_159))) (let ((.def_161 (and .def_160 .def_152))) (let ((.def_162 (not .def_161))) (let ((.def_163 (not A8))) (let ((.def_164 (or A8 .def_163))) (let ((.def_165 (not .def_164))) (let ((.def_166 (= A8 .def_39))) (let ((.def_167 (and .def_166 .def_165))) (let ((.def_168 (or A1 A4))) (let ((.def_169 (not .def_168))) (let ((.def_170 (and A8 A2))) (let ((.def_171 (not .def_170))) (let ((.def_172 (or .def_171 .def_169))) (let ((.def_173 (or .def_172 .def_167))) (let ((.def_174 (and .def_173 .def_162))) (let ((.def_175 (not .def_174))) (let ((.def_176 (or .def_175 .def_140))) (let ((.def_177 (not .def_176))) (let ((.def_178 (and .def_177 .def_99))) (let ((.def_179 (not .def_178))) (let ((.def_180 (* 1 x1))) (let ((.def_181 (+ .def_180 .def_115))) (let ((.def_182 (< .def_181 1))) (let ((.def_183 (or .def_182 .def_135))) (let ((.def_184 (< .def_25 (- 1)))) (let ((.def_185 (not .def_184))) (let ((.def_186 (* (- 1) x2))) (let ((.def_187 (+ .def_103 .def_186))) (let ((.def_188 (< .def_187 1))) (let ((.def_189 (not .def_188))) (let ((.def_190 (and .def_189 .def_185))) (let ((.def_191 (or .def_190 .def_183))) (let ((.def_192 (+ .def_115 .def_13))) (let ((.def_193 (< .def_192 1))) (let ((.def_194 (or .def_193 .def_157))) (let ((.def_195 (or .def_76 A1))) (let ((.def_196 (and .def_195 .def_194))) (let ((.def_197 (not .def_196))) (let ((.def_198 (or .def_197 .def_191))) (let ((.def_199 (+ .def_180 .def_17))) (let ((.def_200 (< .def_199 1))) (let ((.def_201 (and .def_200 A6))) (let ((.def_202 (and .def_104 .def_90))) (let ((.def_203 (not .def_202))) (let ((.def_204 (or .def_203 .def_201))) (let ((.def_205 (not .def_204))) (let ((.def_206 (< .def_100 (- 1)))) (let ((.def_207 (not .def_206))) (let ((.def_208 (not A2))) (let ((.def_209 (and .def_208 .def_207))) (let ((.def_210 (+ .def_8 .def_32))) (let ((.def_211 (< .def_210 (- 1)))) (let ((.def_212 (not .def_211))) (let ((.def_213 (and .def_212 .def_39))) (let ((.def_214 (not .def_213))) (let ((.def_215 (or .def_214 .def_209))) (let ((.def_216 (or .def_215 .def_205))) (let ((.def_217 (or .def_216 .def_198))) (let ((.def_218 (< .def_17 (- 1)))) (let ((.def_219 (or .def_218 .def_108))) (let ((.def_220 (not .def_219))) (let ((.def_221 (< .def_180 (- 1)))) (let ((.def_222 (not .def_221))) (let ((.def_223 (and .def_38 .def_222))) (let ((.def_224 (or .def_223 .def_220))) (let ((.def_225 (< .def_16 (- 1)))) (let ((.def_226 (or A6 .def_225))) (let ((.def_227 (not A5))) (let ((.def_228 (< .def_42 1))) (let ((.def_229 (and .def_228 .def_227))) (let ((.def_230 (not .def_229))) (let ((.def_231 (or .def_230 .def_226))) (let ((.def_232 (not .def_231))) (let ((.def_233 (and .def_232 .def_224))) (let ((.def_234 (not .def_233))) (let ((.def_235 (not .def_182))) (let ((.def_236 (and .def_235 .def_218))) (let ((.def_237 (< .def_186 1))) (let ((.def_238 (or .def_237 .def_227))) (let ((.def_239 (and .def_238 .def_236))) (let ((.def_240 (not .def_239))) (let ((.def_241 (or A8 A5))) (let ((.def_242 (not A4))) (let ((.def_243 (= .def_163 .def_242))) (let ((.def_244 (not .def_243))) (let ((.def_245 (= .def_244 .def_241))) (let ((.def_246 (and .def_245 .def_240))) (let ((.def_247 (not .def_246))) (let ((.def_248 (and .def_247 .def_234))) (let ((.def_249 (or .def_248 .def_217))) (let ((.def_250 (< .def_107 1))) (let ((.def_251 (not .def_250))) (let ((.def_252 (or A5 .def_251))) (let ((.def_253 (not .def_252))) (let ((.def_254 (+ .def_13 .def_186))) (let ((.def_255 (< .def_254 1))) (let ((.def_256 (not .def_255))) (let ((.def_257 (and .def_256 .def_157))) (let ((.def_258 (not .def_257))) (let ((.def_259 (and .def_258 .def_253))) (let ((.def_260 (and A3 A5))) (let ((.def_261 (not .def_260))) (let ((.def_262 (not .def_237))) (let ((.def_263 (or A3 .def_262))) (let ((.def_264 (not .def_263))) (let ((.def_265 (and .def_264 .def_261))) (let ((.def_266 (not .def_265))) (let ((.def_267 (or .def_266 .def_259))) (let ((.def_268 (+ .def_100 .def_17))) (let ((.def_269 (< .def_268 1))) (let ((.def_270 (not .def_269))) (let ((.def_271 (and .def_270 .def_242))) (let ((.def_272 (not .def_271))) (let ((.def_273 (or A0 A0))) (let ((.def_274 (not .def_273))) (let ((.def_275 (or .def_274 .def_272))) (let ((.def_276 (+ .def_115 .def_16))) (let ((.def_277 (< .def_276 1))) (let ((.def_278 (= .def_277 .def_157))) (let ((.def_279 (= .def_39 .def_81))) (let ((.def_280 (or .def_279 .def_278))) (let ((.def_281 (or .def_280 .def_275))) (let ((.def_282 (not .def_281))) (let ((.def_283 (and .def_282 .def_267))) (let ((.def_284 (not .def_283))) (let ((.def_285 (and A4 .def_39))) (let ((.def_286 (not .def_285))) (let ((.def_287 (+ .def_141 .def_43))) (let ((.def_288 (< .def_287 (- 1)))) (let ((.def_289 (or A6 .def_288))) (let ((.def_290 (not .def_289))) (let ((.def_291 (or .def_290 .def_286))) (let ((.def_292 (not .def_291))) (let ((.def_293 (+ .def_43 .def_54))) (let ((.def_294 (< .def_293 (- 1)))) (let ((.def_295 (not .def_294))) (let ((.def_296 (+ .def_67 .def_17))) (let ((.def_297 (< .def_296 1))) (let ((.def_298 (or .def_297 .def_295))) (let ((.def_299 (not .def_298))) (let ((.def_300 (or .def_81 A1))) (let ((.def_301 (= .def_300 .def_299))) (let ((.def_302 (and .def_301 .def_292))) (let ((.def_303 (not .def_302))) (let ((.def_304 (+ .def_13 .def_60))) (let ((.def_305 (< .def_304 (- 1)))) (let ((.def_306 (and A0 .def_305))) (let ((.def_307 (not .def_306))) (let ((.def_308 (+ .def_67 .def_100))) (let ((.def_309 (< .def_308 1))) (let ((.def_310 (not .def_309))) (let ((.def_311 (or A4 .def_310))) (let ((.def_312 (not .def_311))) (let ((.def_313 (= .def_312 .def_307))) (let ((.def_314 (not .def_313))) (let ((.def_315 (and .def_163 .def_81))) (let ((.def_316 (not .def_315))) (let ((.def_317 (or .def_242 A8))) (let ((.def_318 (not .def_317))) (let ((.def_319 (and .def_318 .def_316))) (let ((.def_320 (= .def_319 .def_314))) (let ((.def_321 (not .def_320))) (let ((.def_322 (or .def_321 .def_303))) (let ((.def_323 (not .def_322))) (let ((.def_324 (or .def_323 .def_284))) (let ((.def_325 (= .def_324 .def_249))) (let ((.def_326 (not .def_325))) (let ((.def_327 (= .def_326 .def_179))) (let ((.def_328 (+ .def_26 .def_2))) (let ((.def_329 (< .def_328 (- 1)))) (let ((.def_330 (not .def_329))) (let ((.def_331 (or A0 .def_330))) (let ((.def_332 (+ .def_141 .def_16))) (let ((.def_333 (< .def_332 (- 1)))) (let ((.def_334 (not .def_333))) (let ((.def_335 (and .def_334 .def_38))) (let ((.def_336 (not .def_335))) (let ((.def_337 (or .def_336 .def_331))) (let ((.def_338 (and A7 .def_135))) (let ((.def_339 (not .def_338))) (let ((.def_340 (or .def_38 .def_242))) (let ((.def_341 (or .def_340 .def_339))) (let ((.def_342 (not .def_341))) (let ((.def_343 (= .def_342 .def_337))) (let ((.def_344 (not .def_343))) (let ((.def_345 (< .def_67 1))) (let ((.def_346 (or .def_345 .def_104))) (let ((.def_347 (not .def_346))) (let ((.def_348 (= A7 A1))) (let ((.def_349 (or .def_348 .def_347))) (let ((.def_350 (not .def_349))) (let ((.def_351 (+ .def_2 .def_17))) (let ((.def_352 (< .def_351 1))) (let ((.def_353 (not .def_352))) (let ((.def_354 (+ .def_8 .def_100))) (let ((.def_355 (< .def_354 1))) (let ((.def_356 (and .def_355 .def_353))) (let ((.def_357 (or .def_227 A2))) (let ((.def_358 (or .def_357 .def_356))) (let ((.def_359 (and .def_358 .def_350))) (let ((.def_360 (or .def_359 .def_344))) (let ((.def_361 (not .def_360))) (let ((.def_362 (+ .def_43 .def_67))) (let ((.def_363 (< .def_362 1))) (let ((.def_364 (and .def_363 A6))) (let ((.def_365 (not .def_364))) (let ((.def_366 (< .def_115 (- 1)))) (let ((.def_367 (not .def_366))) (let ((.def_368 (+ .def_60 .def_43))) (let ((.def_369 (< .def_368 (- 1)))) (let ((.def_370 (not .def_369))) (let ((.def_371 (and .def_370 .def_367))) (let ((.def_372 (not .def_371))) (let ((.def_373 (or .def_372 .def_365))) (let ((.def_374 (+ .def_60 .def_141))) (let ((.def_375 (< .def_374 1))) (let ((.def_376 (not .def_375))) (let ((.def_377 (or .def_376 .def_0))) (let ((.def_378 (not .def_377))) (let ((.def_379 (and .def_81 .def_39))) (let ((.def_380 (and .def_379 .def_378))) (let ((.def_381 (and .def_380 .def_373))) (let ((.def_382 (not .def_218))) (let ((.def_383 (or .def_382 A2))) (let ((.def_384 (not .def_383))) (let ((.def_385 (+ .def_115 .def_186))) (let ((.def_386 (< .def_385 (- 1)))) (let ((.def_387 (or .def_38 .def_386))) (let ((.def_388 (or .def_387 .def_384))) (let ((.def_389 (and A5 .def_39))) (let ((.def_390 (+ .def_54 .def_103))) (let ((.def_391 (< .def_390 1))) (let ((.def_392 (not .def_391))) (let ((.def_393 (or .def_392 .def_38))) (let ((.def_394 (or .def_393 .def_389))) (let ((.def_395 (and .def_394 .def_388))) (let ((.def_396 (or .def_395 .def_381))) (let ((.def_397 (and .def_396 .def_361))) (let ((.def_398 (not .def_133))) (let ((.def_399 (= .def_398 .def_62))) (let ((.def_400 (not .def_399))) (let ((.def_401 (or A7 .def_15))) (let ((.def_402 (or .def_401 .def_400))) (let ((.def_403 (< .def_141 (- 1)))) (let ((.def_404 (not .def_403))) (let ((.def_405 (or .def_404 A6))) (let ((.def_406 (not .def_405))) (let ((.def_407 (and .def_135 .def_39))) (let ((.def_408 (not .def_407))) (let ((.def_409 (and .def_408 .def_406))) (let ((.def_410 (not .def_409))) (let ((.def_411 (or .def_410 .def_402))) (let ((.def_412 (and .def_227 A3))) (let ((.def_413 (not .def_412))) (let ((.def_414 (or .def_81 A3))) (let ((.def_415 (not .def_414))) (let ((.def_416 (and .def_415 .def_413))) (let ((.def_417 (+ .def_100 .def_16))) (let ((.def_418 (< .def_417 (- 1)))) (let ((.def_419 (or .def_68 .def_418))) (let ((.def_420 (not .def_419))) (let ((.def_421 (+ .def_141 .def_26))) (let ((.def_422 (< .def_421 (- 1)))) (let ((.def_423 (and .def_422 .def_262))) (let ((.def_424 (not .def_423))) (let ((.def_425 (and .def_424 .def_420))) (let ((.def_426 (not .def_425))) (let ((.def_427 (= .def_426 .def_416))) (let ((.def_428 (not .def_427))) (let ((.def_429 (or .def_428 .def_411))) (let ((.def_430 (not .def_429))) (let ((.def_431 (+ .def_8 .def_43))) (let ((.def_432 (< .def_431 1))) (let ((.def_433 (not .def_432))) (let ((.def_434 (or .def_433 A9))) (let ((.def_435 (+ .def_186 .def_13))) (let ((.def_436 (< .def_435 1))) (let ((.def_437 (not .def_436))) (let ((.def_438 (or .def_437 .def_404))) (let ((.def_439 (not .def_438))) (let ((.def_440 (and .def_439 .def_434))) (let ((.def_441 (not .def_440))) (let ((.def_442 (and A7 .def_433))) (let ((.def_443 (+ .def_100 .def_103))) (let ((.def_444 (< .def_443 1))) (let ((.def_445 (< .def_54 1))) (let ((.def_446 (and .def_445 .def_444))) (let ((.def_447 (not .def_446))) (let ((.def_448 (and .def_447 .def_442))) (let ((.def_449 (not .def_448))) (let ((.def_450 (and .def_449 .def_441))) (let ((.def_451 (not .def_450))) (let ((.def_452 (+ .def_17 .def_26))) (let ((.def_453 (< .def_452 (- 1)))) (let ((.def_454 (and .def_453 .def_86))) (let ((.def_455 (not .def_454))) (let ((.def_456 (< .def_186 (- 1)))) (let ((.def_457 (not .def_456))) (let ((.def_458 (or .def_157 .def_457))) (let ((.def_459 (or .def_458 .def_455))) (let ((.def_460 (= .def_157 .def_157))) (let ((.def_461 (not .def_460))) (let ((.def_462 (or A5 A6))) (let ((.def_463 (not .def_462))) (let ((.def_464 (and .def_463 .def_461))) (let ((.def_465 (not .def_464))) (let ((.def_466 (and .def_465 .def_459))) (let ((.def_467 (and .def_466 .def_451))) (let ((.def_468 (not .def_467))) (let ((.def_469 (and .def_468 .def_430))) (let ((.def_470 (or .def_469 .def_397))) (let ((.def_471 (not .def_470))) (let ((.def_472 (or .def_4 .def_35))) (let ((.def_473 (or .def_242 .def_39))) (let ((.def_474 (or .def_473 .def_472))) (let ((.def_475 (+ .def_13 .def_43))) (let ((.def_476 (< .def_475 (- 1)))) (let ((.def_477 (or .def_157 .def_476))) (let ((.def_478 (not .def_477))) (let ((.def_479 (+ .def_115 .def_43))) (let ((.def_480 (< .def_479 1))) (let ((.def_481 (and A1 .def_480))) (let ((.def_482 (not .def_481))) (let ((.def_483 (and .def_482 .def_478))) (let ((.def_484 (= .def_483 .def_474))) (let ((.def_485 (+ .def_26 .def_17))) (let ((.def_486 (< .def_485 1))) (let ((.def_487 (and .def_486 .def_35))) (let ((.def_488 (not .def_487))) (let ((.def_489 (+ .def_32 .def_16))) (let ((.def_490 (< .def_489 1))) (let ((.def_491 (and .def_490 A4))) (let ((.def_492 (and .def_491 .def_488))) (let ((.def_493 (+ .def_2 .def_115))) (let ((.def_494 (< .def_493 (- 1)))) (let ((.def_495 (and A3 .def_494))) (let ((.def_496 (not .def_495))) (let ((.def_497 (or .def_135 .def_86))) (let ((.def_498 (not .def_497))) (let ((.def_499 (and .def_498 .def_496))) (let ((.def_500 (and .def_499 .def_492))) (let ((.def_501 (not .def_500))) (let ((.def_502 (= .def_501 .def_484))) (let ((.def_503 (not .def_502))) (let ((.def_504 (< .def_268 (- 1)))) (let ((.def_505 (or .def_39 .def_504))) (let ((.def_506 (+ .def_32 .def_17))) (let ((.def_507 (< .def_506 1))) (let ((.def_508 (not .def_507))) (let ((.def_509 (or .def_163 .def_508))) (let ((.def_510 (or .def_509 .def_505))) (let ((.def_511 (not .def_510))) (let ((.def_512 (+ .def_32 .def_103))) (let ((.def_513 (< .def_512 1))) (let ((.def_514 (not .def_513))) (let ((.def_515 (and .def_514 A8))) (let ((.def_516 (< .def_141 1))) (let ((.def_517 (not .def_516))) (let ((.def_518 (or A3 .def_517))) (let ((.def_519 (not .def_518))) (let ((.def_520 (or .def_519 .def_515))) (let ((.def_521 (and .def_520 .def_511))) (let ((.def_522 (not .def_521))) (let ((.def_523 (or .def_15 A4))) (let ((.def_524 (not .def_225))) (let ((.def_525 (or .def_524 .def_39))) (let ((.def_526 (not .def_525))) (let ((.def_527 (or .def_526 .def_523))) (let ((.def_528 (not .def_527))) (let ((.def_529 (= .def_242 .def_157))) (let ((.def_530 (not .def_82))) (let ((.def_531 (or A9 .def_530))) (let ((.def_532 (not .def_531))) (let ((.def_533 (or .def_532 .def_529))) (let ((.def_534 (or .def_533 .def_528))) (let ((.def_535 (not .def_534))) (let ((.def_536 (or .def_535 .def_522))) (let ((.def_537 (or .def_536 .def_503))) (let ((.def_538 (+ .def_100 .def_2))) (let ((.def_539 (< .def_538 (- 1)))) (let ((.def_540 (not .def_539))) (let ((.def_541 (and .def_540 .def_445))) (let ((.def_542 (not .def_541))) (let ((.def_543 (+ .def_67 .def_32))) (let ((.def_544 (< .def_543 (- 1)))) (let ((.def_545 (not .def_544))) (let ((.def_546 (or .def_86 .def_545))) (let ((.def_547 (not .def_546))) (let ((.def_548 (and .def_547 .def_542))) (let ((.def_549 (= A7 A5))) (let ((.def_550 (and .def_0 .def_242))) (let ((.def_551 (or .def_550 .def_549))) (let ((.def_552 (not .def_551))) (let ((.def_553 (or .def_552 .def_548))) (let ((.def_554 (not .def_553))) (let ((.def_555 (and .def_0 .def_135))) (let ((.def_556 (not .def_61))) (let ((.def_557 (or A4 .def_556))) (let ((.def_558 (or .def_557 .def_555))) (let ((.def_559 (= A0 .def_200))) (let ((.def_560 (and .def_262 A2))) (let ((.def_561 (= .def_560 .def_559))) (let ((.def_562 (not .def_561))) (let ((.def_563 (and .def_562 .def_558))) (let ((.def_564 (not .def_563))) (let ((.def_565 (= .def_564 .def_554))) (let ((.def_566 (not .def_494))) (let ((.def_567 (and .def_566 A0))) (let ((.def_568 (not .def_567))) (let ((.def_569 (+ .def_25 .def_54))) (let ((.def_570 (< .def_569 1))) (let ((.def_571 (not .def_570))) (let ((.def_572 (+ .def_43 .def_107))) (let ((.def_573 (< .def_572 1))) (let ((.def_574 (not .def_573))) (let ((.def_575 (or .def_574 .def_571))) (let ((.def_576 (and .def_575 .def_568))) (let ((.def_577 (not .def_576))) (let ((.def_578 (or .def_87 .def_163))) (let ((.def_579 (not .def_578))) (let ((.def_580 (+ .def_103 .def_54))) (let ((.def_581 (< .def_580 (- 1)))) (let ((.def_582 (and .def_581 .def_81))) (let ((.def_583 (not .def_582))) (let ((.def_584 (and .def_583 .def_579))) (let ((.def_585 (and .def_584 .def_577))) (let ((.def_586 (not .def_585))) (let ((.def_587 (+ .def_43 .def_26))) (let ((.def_588 (< .def_587 (- 1)))) (let ((.def_589 (not .def_588))) (let ((.def_590 (< .def_187 (- 1)))) (let ((.def_591 (not .def_590))) (let ((.def_592 (and .def_591 .def_589))) (let ((.def_593 (not .def_592))) (let ((.def_594 (= A7 A7))) (let ((.def_595 (not .def_594))) (let ((.def_596 (and .def_595 .def_593))) (let ((.def_597 (+ .def_107 .def_60))) (let ((.def_598 (< .def_597 (- 1)))) (let ((.def_599 (and .def_81 .def_598))) (let ((.def_600 (< .def_572 (- 1)))) (let ((.def_601 (= .def_600 A5))) (let ((.def_602 (not .def_601))) (let ((.def_603 (or .def_602 .def_599))) (let ((.def_604 (or .def_603 .def_596))) (let ((.def_605 (not .def_604))) (let ((.def_606 (and .def_605 .def_586))) (let ((.def_607 (not .def_606))) (let ((.def_608 (and .def_607 .def_565))) (let ((.def_609 (and .def_608 .def_537))) (let ((.def_610 (not .def_609))) (let ((.def_611 (or .def_610 .def_471))) (let ((.def_612 (not .def_611))) (let ((.def_613 (= .def_612 .def_327))) (let ((.def_614 (not .def_613))) (let ((.def_615 (<= x9 1))) (let ((.def_616 (<= 0 x9))) (let ((.def_617 (<= x8 1))) (let ((.def_618 (<= 0 x8))) (let ((.def_619 (<= x7 1))) (let ((.def_620 (<= 0 x7))) (let ((.def_621 (<= x6 1))) (let ((.def_622 (<= 0 x6))) (let ((.def_623 (<= x5 1))) (let ((.def_624 (<= 0 x5))) (let ((.def_625 (<= x4 1))) (let ((.def_626 (<= 0 x4))) (let ((.def_627 (<= x3 1))) (let ((.def_628 (<= 0 x3))) (let ((.def_629 (<= x2 1))) (let ((.def_630 (<= 0 x2))) (let ((.def_631 (<= x1 1))) (let ((.def_632 (<= 0 x1))) (let ((.def_633 (<= x0 1))) (let ((.def_634 (<= 0 x0))) (let ((.def_635 (and .def_634 .def_633 .def_632 .def_631 .def_630 .def_629 .def_628 .def_627 .def_626 .def_625 .def_624 .def_623 .def_622 .def_621 .def_620 .def_619 .def_618 .def_617 .def_616 .def_615 .def_614))) .def_635)))))))))))))))))))))))))))))))))))))))))))))))))))))))))))))))))))))))))))))))))))))))))))))))))))))))))))))))))))))))))))))))))))))))))))))))))))))))))))))))))))))))))))))))))))))))))))))))))))))))))))))))))))))))))))))))))))))))))))))))))))))))))))))))))))))))))))))))))))))))))))))))))))))))))))))))))))))))))))))))))))))))))))))))))))))))))))))))))))))))))))))))))))))))))))))))))))))))))))))))))))))))))))))))))))))))))))))))))))))))))))))))))))))))))))))))))))))))))))))))))))))))))))))))))))))))))))))))))))))))))))))))))))))))))))))))))))))))))))))))))))))))))))))))))))))))))))))))))))))))))))))))))))))))))))))))))))))))))))))
(check-sat)
